% Auto-generated by scripts/generate_dzn.py
% problem_type   = polyominoes
% instance       = polyominoes_9
% source_json    = instances_json/0_low_blowup/polyominoes_9.json
% blowup         = 0.6666666666666666
% representation = NFA

mode = 1;

size = 4;
tiles = 4;
n_expressions = 4;
Q = 54;
S = 5;
q0 = [1, 1, 1, 1];
F = [{13}, {8}, {18}, {4}];
d_dfa = array3d(1..4, 1..54, 1..5, [
  % k = 1
    0, 0, 0, 0, 0,
    0, 0, 0, 0, 0,
    0, 0, 0, 0, 0,
    0, 0, 0, 0, 0,
    0, 0, 0, 0, 0,
    0, 0, 0, 0, 0,
    0, 0, 0, 0, 0,
    0, 0, 0, 0, 0,
    0, 0, 0, 0, 0,
    0, 0, 0, 0, 0,
    0, 0, 0, 0, 0,
    0, 0, 0, 0, 0,
    0, 0, 0, 0, 0,
    0, 0, 0, 0, 0,
    0, 0, 0, 0, 0,
    0, 0, 0, 0, 0,
    0, 0, 0, 0, 0,
    0, 0, 0, 0, 0,
    0, 0, 0, 0, 0,
    0, 0, 0, 0, 0,
    0, 0, 0, 0, 0,
    0, 0, 0, 0, 0,
    0, 0, 0, 0, 0,
    0, 0, 0, 0, 0,
    0, 0, 0, 0, 0,
    0, 0, 0, 0, 0,
    0, 0, 0, 0, 0,
    0, 0, 0, 0, 0,
    0, 0, 0, 0, 0,
    0, 0, 0, 0, 0,
    0, 0, 0, 0, 0,
    0, 0, 0, 0, 0,
    0, 0, 0, 0, 0,
    0, 0, 0, 0, 0,
    0, 0, 0, 0, 0,
    0, 0, 0, 0, 0,
    0, 0, 0, 0, 0,
    0, 0, 0, 0, 0,
    0, 0, 0, 0, 0,
    0, 0, 0, 0, 0,
    0, 0, 0, 0, 0,
    0, 0, 0, 0, 0,
    0, 0, 0, 0, 0,
    0, 0, 0, 0, 0,
    0, 0, 0, 0, 0,
    0, 0, 0, 0, 0,
    0, 0, 0, 0, 0,
    0, 0, 0, 0, 0,
    0, 0, 0, 0, 0,
    0, 0, 0, 0, 0,
    0, 0, 0, 0, 0,
    0, 0, 0, 0, 0,
    0, 0, 0, 0, 0,
    0, 0, 0, 0, 0,

  % k = 2
    0, 0, 0, 0, 0,
    0, 0, 0, 0, 0,
    0, 0, 0, 0, 0,
    0, 0, 0, 0, 0,
    0, 0, 0, 0, 0,
    0, 0, 0, 0, 0,
    0, 0, 0, 0, 0,
    0, 0, 0, 0, 0,
    0, 0, 0, 0, 0,
    0, 0, 0, 0, 0,
    0, 0, 0, 0, 0,
    0, 0, 0, 0, 0,
    0, 0, 0, 0, 0,
    0, 0, 0, 0, 0,
    0, 0, 0, 0, 0,
    0, 0, 0, 0, 0,
    0, 0, 0, 0, 0,
    0, 0, 0, 0, 0,
    0, 0, 0, 0, 0,
    0, 0, 0, 0, 0,
    0, 0, 0, 0, 0,
    0, 0, 0, 0, 0,
    0, 0, 0, 0, 0,
    0, 0, 0, 0, 0,
    0, 0, 0, 0, 0,
    0, 0, 0, 0, 0,
    0, 0, 0, 0, 0,
    0, 0, 0, 0, 0,
    0, 0, 0, 0, 0,
    0, 0, 0, 0, 0,
    0, 0, 0, 0, 0,
    0, 0, 0, 0, 0,
    0, 0, 0, 0, 0,
    0, 0, 0, 0, 0,
    0, 0, 0, 0, 0,
    0, 0, 0, 0, 0,
    0, 0, 0, 0, 0,
    0, 0, 0, 0, 0,
    0, 0, 0, 0, 0,
    0, 0, 0, 0, 0,
    0, 0, 0, 0, 0,
    0, 0, 0, 0, 0,
    0, 0, 0, 0, 0,
    0, 0, 0, 0, 0,
    0, 0, 0, 0, 0,
    0, 0, 0, 0, 0,
    0, 0, 0, 0, 0,
    0, 0, 0, 0, 0,
    0, 0, 0, 0, 0,
    0, 0, 0, 0, 0,
    0, 0, 0, 0, 0,
    0, 0, 0, 0, 0,
    0, 0, 0, 0, 0,
    0, 0, 0, 0, 0,

  % k = 3
    0, 0, 0, 0, 0,
    0, 0, 0, 0, 0,
    0, 0, 0, 0, 0,
    0, 0, 0, 0, 0,
    0, 0, 0, 0, 0,
    0, 0, 0, 0, 0,
    0, 0, 0, 0, 0,
    0, 0, 0, 0, 0,
    0, 0, 0, 0, 0,
    0, 0, 0, 0, 0,
    0, 0, 0, 0, 0,
    0, 0, 0, 0, 0,
    0, 0, 0, 0, 0,
    0, 0, 0, 0, 0,
    0, 0, 0, 0, 0,
    0, 0, 0, 0, 0,
    0, 0, 0, 0, 0,
    0, 0, 0, 0, 0,
    0, 0, 0, 0, 0,
    0, 0, 0, 0, 0,
    0, 0, 0, 0, 0,
    0, 0, 0, 0, 0,
    0, 0, 0, 0, 0,
    0, 0, 0, 0, 0,
    0, 0, 0, 0, 0,
    0, 0, 0, 0, 0,
    0, 0, 0, 0, 0,
    0, 0, 0, 0, 0,
    0, 0, 0, 0, 0,
    0, 0, 0, 0, 0,
    0, 0, 0, 0, 0,
    0, 0, 0, 0, 0,
    0, 0, 0, 0, 0,
    0, 0, 0, 0, 0,
    0, 0, 0, 0, 0,
    0, 0, 0, 0, 0,
    0, 0, 0, 0, 0,
    0, 0, 0, 0, 0,
    0, 0, 0, 0, 0,
    0, 0, 0, 0, 0,
    0, 0, 0, 0, 0,
    0, 0, 0, 0, 0,
    0, 0, 0, 0, 0,
    0, 0, 0, 0, 0,
    0, 0, 0, 0, 0,
    0, 0, 0, 0, 0,
    0, 0, 0, 0, 0,
    0, 0, 0, 0, 0,
    0, 0, 0, 0, 0,
    0, 0, 0, 0, 0,
    0, 0, 0, 0, 0,
    0, 0, 0, 0, 0,
    0, 0, 0, 0, 0,
    0, 0, 0, 0, 0,

  % k = 4
    0, 0, 0, 0, 0,
    0, 0, 0, 0, 0,
    0, 0, 0, 0, 0,
    0, 0, 0, 0, 0,
    0, 0, 0, 0, 0,
    0, 0, 0, 0, 0,
    0, 0, 0, 0, 0,
    0, 0, 0, 0, 0,
    0, 0, 0, 0, 0,
    0, 0, 0, 0, 0,
    0, 0, 0, 0, 0,
    0, 0, 0, 0, 0,
    0, 0, 0, 0, 0,
    0, 0, 0, 0, 0,
    0, 0, 0, 0, 0,
    0, 0, 0, 0, 0,
    0, 0, 0, 0, 0,
    0, 0, 0, 0, 0,
    0, 0, 0, 0, 0,
    0, 0, 0, 0, 0,
    0, 0, 0, 0, 0,
    0, 0, 0, 0, 0,
    0, 0, 0, 0, 0,
    0, 0, 0, 0, 0,
    0, 0, 0, 0, 0,
    0, 0, 0, 0, 0,
    0, 0, 0, 0, 0,
    0, 0, 0, 0, 0,
    0, 0, 0, 0, 0,
    0, 0, 0, 0, 0,
    0, 0, 0, 0, 0,
    0, 0, 0, 0, 0,
    0, 0, 0, 0, 0,
    0, 0, 0, 0, 0,
    0, 0, 0, 0, 0,
    0, 0, 0, 0, 0,
    0, 0, 0, 0, 0,
    0, 0, 0, 0, 0,
    0, 0, 0, 0, 0,
    0, 0, 0, 0, 0,
    0, 0, 0, 0, 0,
    0, 0, 0, 0, 0,
    0, 0, 0, 0, 0,
    0, 0, 0, 0, 0,
    0, 0, 0, 0, 0,
    0, 0, 0, 0, 0,
    0, 0, 0, 0, 0,
    0, 0, 0, 0, 0,
    0, 0, 0, 0, 0,
    0, 0, 0, 0, 0,
    0, 0, 0, 0, 0,
    0, 0, 0, 0, 0,
    0, 0, 0, 0, 0,
    0, 0, 0, 0, 0
]);
d_nfa = array3d(1..4, 1..54, 1..5, [
  % k = 1
    {3, 15, 17, 27, 29, 33, 36, 39}, {2, 14, 16, 26, 32, 35, 38, 45}, {2, 14, 16, 26, 32, 35, 38, 45}, {2, 14, 16, 26, 32, 35, 38, 45}, {2, 14, 16, 26, 32, 35, 38, 45},
    {3}, {2}, {2}, {2}, {2},
    {4}, {}, {}, {}, {},
    {}, {5}, {5}, {5}, {5},
    {}, {6}, {6}, {6}, {6},
    {}, {7}, {7}, {7}, {7},
    {8}, {}, {}, {}, {},
    {}, {9}, {9}, {9}, {9},
    {}, {10}, {10}, {10}, {10},
    {}, {11}, {11}, {11}, {11},
    {}, {12}, {12}, {12}, {12},
    {13}, {}, {}, {}, {},
    {}, {13}, {13}, {13}, {13},
    {15}, {14}, {14}, {14}, {14},
    {7}, {}, {}, {}, {},
    {17}, {16}, {16}, {16}, {16},
    {}, {18}, {18}, {18}, {18},
    {}, {19}, {19}, {19}, {19},
    {}, {20}, {20}, {20}, {20},
    {}, {21}, {21}, {21}, {21},
    {22}, {}, {}, {}, {},
    {}, {23}, {23}, {23}, {23},
    {}, {24}, {24}, {24}, {24},
    {}, {25}, {25}, {25}, {25},
    {12}, {}, {}, {}, {},
    {27}, {26}, {26}, {26}, {26},
    {}, {28}, {28}, {28}, {28},
    {}, {29}, {29}, {29}, {29},
    {}, {30}, {30}, {30}, {30},
    {}, {31}, {31}, {31}, {31},
    {25}, {}, {}, {}, {},
    {33}, {32}, {32}, {32}, {32},
    {34}, {}, {}, {}, {},
    {}, {4}, {4}, {4}, {4},
    {36}, {35}, {35}, {35}, {35},
    {37}, {}, {}, {}, {},
    {10}, {}, {}, {}, {},
    {39}, {38}, {38}, {38}, {38},
    {}, {40}, {40}, {40}, {40},
    {}, {41}, {41}, {41}, {41},
    {}, {42}, {42}, {42}, {42},
    {}, {43}, {43}, {43}, {43},
    {44}, {}, {}, {}, {},
    {}, {22}, {22}, {22}, {22},
    {29}, {45}, {45}, {45}, {45},
    {}, {}, {}, {}, {},
    {}, {}, {}, {}, {},
    {}, {}, {}, {}, {},
    {}, {}, {}, {}, {},
    {}, {}, {}, {}, {},
    {}, {}, {}, {}, {},
    {}, {}, {}, {}, {},
    {}, {}, {}, {}, {},
    {}, {}, {}, {}, {},

  % k = 2
    {2, 9, 11, 16}, {3, 10, 12, 17}, {2, 9, 11, 16}, {2, 9, 11, 16}, {2, 9, 11, 16},
    {2}, {3}, {2}, {2}, {2},
    {4}, {}, {4}, {4}, {4},
    {5}, {}, {5}, {5}, {5},
    {6}, {}, {6}, {6}, {6},
    {}, {7}, {}, {}, {},
    {}, {8}, {}, {}, {},
    {8}, {}, {8}, {8}, {8},
    {9}, {10}, {9}, {9}, {9},
    {3}, {}, {3}, {3}, {3},
    {11}, {12}, {11}, {11}, {11},
    {}, {13}, {}, {}, {},
    {14}, {}, {14}, {14}, {14},
    {15}, {}, {15}, {15}, {15},
    {7}, {}, {7}, {7}, {7},
    {16}, {17}, {16}, {16}, {16},
    {}, {18}, {}, {}, {},
    {13}, {}, {13}, {13}, {13},
    {}, {}, {}, {}, {},
    {}, {}, {}, {}, {},
    {}, {}, {}, {}, {},
    {}, {}, {}, {}, {},
    {}, {}, {}, {}, {},
    {}, {}, {}, {}, {},
    {}, {}, {}, {}, {},
    {}, {}, {}, {}, {},
    {}, {}, {}, {}, {},
    {}, {}, {}, {}, {},
    {}, {}, {}, {}, {},
    {}, {}, {}, {}, {},
    {}, {}, {}, {}, {},
    {}, {}, {}, {}, {},
    {}, {}, {}, {}, {},
    {}, {}, {}, {}, {},
    {}, {}, {}, {}, {},
    {}, {}, {}, {}, {},
    {}, {}, {}, {}, {},
    {}, {}, {}, {}, {},
    {}, {}, {}, {}, {},
    {}, {}, {}, {}, {},
    {}, {}, {}, {}, {},
    {}, {}, {}, {}, {},
    {}, {}, {}, {}, {},
    {}, {}, {}, {}, {},
    {}, {}, {}, {}, {},
    {}, {}, {}, {}, {},
    {}, {}, {}, {}, {},
    {}, {}, {}, {}, {},
    {}, {}, {}, {}, {},
    {}, {}, {}, {}, {},
    {}, {}, {}, {}, {},
    {}, {}, {}, {}, {},
    {}, {}, {}, {}, {},
    {}, {}, {}, {}, {},

  % k = 3
    {2, 19, 26, 41}, {2, 19, 26, 41}, {3, 20, 27, 42}, {2, 19, 26, 41}, {2, 19, 26, 41},
    {2}, {2}, {3}, {2}, {2},
    {}, {}, {4}, {}, {},
    {}, {}, {5}, {}, {},
    {}, {}, {6}, {}, {},
    {7}, {7}, {}, {7}, {7},
    {}, {}, {8}, {}, {},
    {9}, {9}, {}, {9}, {9},
    {10}, {10}, {}, {10}, {10},
    {11}, {11}, {}, {11}, {11},
    {12}, {12}, {}, {12}, {12},
    {}, {}, {13}, {}, {},
    {14}, {14}, {}, {14}, {14},
    {15}, {15}, {}, {15}, {15},
    {16}, {16}, {}, {16}, {16},
    {17}, {17}, {}, {17}, {17},
    {}, {}, {18}, {}, {},
    {18}, {18}, {}, {18}, {18},
    {19}, {19}, {20}, {19}, {19},
    {}, {}, {21}, {}, {},
    {}, {}, {22}, {}, {},
    {}, {}, {23}, {}, {},
    {24}, {24}, {}, {24}, {24},
    {25}, {25}, {}, {25}, {25},
    {6}, {6}, {}, {6}, {6},
    {26}, {26}, {27}, {26}, {26},
    {28}, {28}, {}, {28}, {28},
    {29}, {29}, {}, {29}, {29},
    {30}, {30}, {}, {30}, {30},
    {31}, {31}, {}, {31}, {31},
    {}, {}, {32}, {}, {},
    {33}, {33}, {}, {33}, {33},
    {34}, {34}, {}, {34}, {34},
    {35}, {35}, {}, {35}, {35},
    {36}, {36}, {}, {36}, {36},
    {}, {}, {37}, {}, {},
    {38}, {38}, {}, {38}, {38},
    {}, {}, {39}, {}, {},
    {}, {}, {40}, {}, {},
    {}, {}, {17}, {}, {},
    {41}, {41}, {42}, {41}, {41},
    {43}, {43}, {}, {43}, {43},
    {44}, {44}, {}, {44}, {44},
    {45}, {45}, {}, {45}, {45},
    {46}, {46}, {}, {46}, {46},
    {}, {}, {47}, {}, {},
    {48}, {48}, {}, {48}, {48},
    {49}, {49}, {}, {49}, {49},
    {50}, {50}, {}, {50}, {50},
    {51}, {51}, {}, {51}, {51},
    {}, {}, {52}, {}, {},
    {53}, {53}, {}, {53}, {53},
    {54}, {54}, {}, {54}, {54},
    {37}, {37}, {}, {37}, {37},

  % k = 4
    {2, 5}, {2, 5}, {2, 5}, {3, 6}, {2, 5},
    {2}, {2}, {2}, {3}, {2},
    {}, {}, {}, {4}, {},
    {4}, {4}, {4}, {}, {4},
    {5}, {5}, {5}, {6}, {5},
    {7}, {7}, {7}, {}, {7},
    {8}, {8}, {8}, {}, {8},
    {9}, {9}, {9}, {}, {9},
    {3}, {3}, {3}, {}, {3},
    {}, {}, {}, {}, {},
    {}, {}, {}, {}, {},
    {}, {}, {}, {}, {},
    {}, {}, {}, {}, {},
    {}, {}, {}, {}, {},
    {}, {}, {}, {}, {},
    {}, {}, {}, {}, {},
    {}, {}, {}, {}, {},
    {}, {}, {}, {}, {},
    {}, {}, {}, {}, {},
    {}, {}, {}, {}, {},
    {}, {}, {}, {}, {},
    {}, {}, {}, {}, {},
    {}, {}, {}, {}, {},
    {}, {}, {}, {}, {},
    {}, {}, {}, {}, {},
    {}, {}, {}, {}, {},
    {}, {}, {}, {}, {},
    {}, {}, {}, {}, {},
    {}, {}, {}, {}, {},
    {}, {}, {}, {}, {},
    {}, {}, {}, {}, {},
    {}, {}, {}, {}, {},
    {}, {}, {}, {}, {},
    {}, {}, {}, {}, {},
    {}, {}, {}, {}, {},
    {}, {}, {}, {}, {},
    {}, {}, {}, {}, {},
    {}, {}, {}, {}, {},
    {}, {}, {}, {}, {},
    {}, {}, {}, {}, {},
    {}, {}, {}, {}, {},
    {}, {}, {}, {}, {},
    {}, {}, {}, {}, {},
    {}, {}, {}, {}, {},
    {}, {}, {}, {}, {},
    {}, {}, {}, {}, {},
    {}, {}, {}, {}, {},
    {}, {}, {}, {}, {},
    {}, {}, {}, {}, {},
    {}, {}, {}, {}, {},
    {}, {}, {}, {}, {},
    {}, {}, {}, {}, {},
    {}, {}, {}, {}, {},
    {}, {}, {}, {}, {}
]);
